(set-logic HORN)
(set-info :source |
  Benchmark: ./benchmarks/ocaml/safety/tacas2015//fact_nonlinear.ml
  Generated by Refinement Caml
|)
(set-info :status unknown)
(declare-fun |$P0| (Int) Bool)
(declare-fun |$P1| (Int Int) Bool)
(assert (forall ((x1 Int)(x0 Int)) (=> (and (|$P0| x1) (and (= x0 1) (<= x1 1))) (|$P1| x1 x0))))
(assert (forall ((x0 Int)(x1 Int)) (=> (and (|$P0| x1) (and (>= x1 2) (= x1 (+ 1 x0)))) (|$P0| x0))))
(assert (forall ((x1 Int)(x0 Int)(x2 Int)(x3 Int)) (=> (and (|$P0| x1) (and (|$P1| x2 x3) (and (>= x1 2) (and (= x1 (+ 1 x2)) (= x0 (* x1 x3)))))) (|$P1| x1 x0))))
(assert (forall ((x2 Int)(x0 Int)(x1 Int)) (=> (and (and (or (> x0 0) (> x1 0)) (or (not (> x0 0)) (not (> x1 0)))) (or (and (> x1 0) (>= x2 4)) (and (not (> x1 0)) (not (>= x2 4))))) (|$P0| x2))))
(assert (not (exists ((x1 Int)(x0 Int)) (and (|$P1| x0 x1) (and (<= (+ 1 x1) x0) (>= x0 4))))))
(check-sat)
